Trabajo Practico/tp_opl/Casos propios/Caso3MultiplesCodigosPostalesIgualesCajas3DestinosPorPasada.dat
/*********************************************
 * OPL 12.9.1.0 Data
 * Author: Franco Daniel Schischlo
 * Creation Date: Aug 29, 2019 at 8:44:07 PM
 *********************************************/

COD_POST = {"A","B","C","D"}; 

CAJAS = [10,10,10,10]; //Cajas por cod post

DESTINOS_POR_PASADA = 3;

TIEMPO_PROC_CAJA = 1; //Expresado en segundos
